(set-logic QF_SLIA)
(declare-fun var0 () String)
(assert (not (str.in_re var0 (re.++ ((_ re.loop 10 915) (re.++ (re.union (str.to_re "N(") (re.union (str.to_re "'") (re.union (str.to_re "9[r") (str.to_re "I")))) (re.++ (re.union (str.to_re "#%P") (re.union (str.to_re "1R") (re.union (str.to_re "o") (str.to_re "+]]")))) (re.++ (re.union (str.to_re "K") (re.union (str.to_re "6") (re.union (str.to_re "Fj") (str.to_re "d")))) (re.union (str.to_re "@") (re.union (str.to_re ")e") (re.union (str.to_re "K=") (str.to_re "R")))))))) (re.++ ((_ re.loop 7 826) (re.++ (re.union (str.to_re "_") (re.union (str.to_re "<t") (re.union (str.to_re "3=V") (str.to_re "CN")))) (re.++ (re.union (str.to_re "|6") (re.union (str.to_re "TBH") (re.union (str.to_re "h") (str.to_re "B")))) (re.++ (re.union (str.to_re "w") (re.union (str.to_re "y") (re.union (str.to_re "C") (str.to_re "N")))) (re.union (str.to_re "&") (re.union (str.to_re "L") (re.union (str.to_re "Z/") (str.to_re "+w")))))))) (re.++ ((_ re.loop 17 727) (re.++ (re.union (str.to_re "_O") (re.union (str.to_re "|{") (re.union (str.to_re "K") (str.to_re "]")))) (re.++ (re.union (str.to_re "4") (re.union (str.to_re "8%;") (re.union (str.to_re "7+r") (str.to_re "X:C")))) (re.++ (re.union (str.to_re "k") (re.union (str.to_re "w4") (re.union (str.to_re "B") (str.to_re "*b")))) (re.union (str.to_re "H") (re.union (str.to_re "~'#") (re.union (str.to_re "}xR") (str.to_re "o-I")))))))) ((_ re.loop 11 555) (re.++ (re.union (str.to_re ";") (re.union (str.to_re "`<9") (re.union (str.to_re "m@") (str.to_re "(")))) (re.++ (re.union (str.to_re "SF") (re.union (str.to_re "k") (re.union (str.to_re "3!") (str.to_re "P'\\")))) (re.++ (re.union (str.to_re "4c\\") (re.union (str.to_re "L|h") (re.union (str.to_re "zZP") (str.to_re "E<Z")))) (re.union (str.to_re "K") (re.union (str.to_re "gB") (re.union (str.to_re "{0Y") (str.to_re "8"))))))))))))))
(assert (not (str.in_re var0 (re.++ ((_ re.loop 2 113) (re.++ (re.union (str.to_re "iV") (re.union (str.to_re "w,S") (re.union (str.to_re "iR") (str.to_re ";f")))) (re.++ (re.union (str.to_re "J[s") (re.union (str.to_re "6.") (re.union (str.to_re "8") (str.to_re "rT")))) (re.++ (re.union (str.to_re "$u\u0022") (re.union (str.to_re "B`M") (re.union (str.to_re "G") (str.to_re "^h")))) (re.union (str.to_re "=") (re.union (str.to_re ">Sb") (re.union (str.to_re "V!") (str.to_re "uN")))))))) (re.++ ((_ re.loop 10 249) (re.++ (re.union (str.to_re "qq6") (re.union (str.to_re "'xf") (re.union (str.to_re "/") (str.to_re "Jqr")))) (re.++ (re.union (str.to_re "Ap") (re.union (str.to_re "GRl") (re.union (str.to_re "X") (str.to_re "9]")))) (re.++ (re.union (str.to_re "3{") (re.union (str.to_re ".") (re.union (str.to_re "6cm") (str.to_re "G8Q")))) (re.union (str.to_re "kJ\\") (re.union (str.to_re "Zj") (re.union (str.to_re "*") (str.to_re "3zt")))))))) (re.++ ((_ re.loop 3 1000) (re.++ (re.union (str.to_re "/") (re.union (str.to_re "0") (re.union (str.to_re "|") (str.to_re "itY")))) (re.++ (re.union (str.to_re "5") (re.union (str.to_re "\\U") (re.union (str.to_re "W") (str.to_re "N}")))) (re.++ (re.union (str.to_re "]") (re.union (str.to_re "}}") (re.union (str.to_re "g?s") (str.to_re "u~")))) (re.union (str.to_re "z") (re.union (str.to_re "$#7") (re.union (str.to_re "i|]") (str.to_re "vd")))))))) ((_ re.loop 6 753) (re.++ (re.union (str.to_re "d=L") (re.union (str.to_re "Qm") (re.union (str.to_re "emL") (str.to_re "F[")))) (re.++ (re.union (str.to_re "E") (re.union (str.to_re "B") (re.union (str.to_re "'0}") (str.to_re "xc")))) (re.++ (re.union (str.to_re "V4)") (re.union (str.to_re "yT") (re.union (str.to_re "[wS") (str.to_re "zN3")))) (re.union (str.to_re "^.") (re.union (str.to_re "'") (re.union (str.to_re "-") (str.to_re ","))))))))))))))
(assert (not (str.in_re var0 (re.++ (re.* re.allchar) (re.++ (re.union (str.to_re "<") (re.union (str.to_re ">") (re.union (str.to_re "'") (re.union (str.to_re "\u0022") (str.to_re "&"))))) (re.* re.allchar))))))
(assert (<= 50 (str.len var0)))
(check-sat)
(get-model)
